p cnf 18 48
1 2 3 0 
-1 -2 0 
-1 -3 0 
-2 -3 0 
4 5 6 0 
-4 -5 0 
-4 -6 0 
-5 -6 0 
7 8 9 0 
-7 -8 0 
-7 -9 0 
-8 -9 0 
10 11 12 0 
-10 -11 0 
-10 -12 0 
-11 -12 0 
13 14 15 0 
-13 -14 0 
-13 -15 0 
-14 -15 0 
16 17 18 0 
-16 -17 0 
-16 -18 0 
-17 -18 0 
-1 -16 0
-2 -17 0
-3 -18 0
-4 -13 0
-5 -14 0
-6 -15 0
-4 -7 0
-5 -8 0
-6 -9 0
-7 -13 0
-8 -14 0
-9 -15 0
-7 -10 0
-8 -11 0
-9 -12 0
-7 -4 0
-8 -5 0
-9 -6 0
-10 -16 0
-11 -17 0
-12 -18 0
-10 -13 0
-11 -14 0
-12 -15 0
-10 -7 0
-11 -8 0
-12 -9 0
-13 -16 0
-14 -17 0
-15 -18 0
-13 -10 0
-14 -11 0
-15 -12 0
-13 -7 0
-14 -8 0
-15 -9 0
-13 -4 0
-14 -5 0
-15 -6 0
-16 -13 0
-17 -14 0
-18 -15 0
-16 -10 0
-17 -11 0
-18 -12 0
-16 -1 0
-17 -2 0
-18 -3 0
